
Gurobi 10.0.2 (win64, Python) logging started Sun Feb  4 16:51:14 2024

Set parameter Username
Set parameter LogFile to value "C:\Users\ghadi\Downloads\Discrete Optimization Project - Gurobi- Instance 8\Discrete Optimization Project - Instance 8-Log File.log"
Academic license - for non-commercial use only - expires 2024-07-07
Set parameter Threads to value 1
Set parameter Presolve to value 1
Set parameter Method to value 0
Set parameter TimeLimit to value 1200
Set parameter PreSparsify to value 1
Gurobi Optimizer version 10.0.2 build v10.0.2rc0 (win64)

CPU model: 12th Gen Intel(R) Core(TM) i5-1235U, instruction set [SSE2|AVX|AVX2]
Thread count: 10 physical cores, 12 logical processors, using up to 1 threads

Optimize a model with 440500 rows, 171120 columns and 375900 nonzeros
Model fingerprint: 0xa6ec54e0
Variable types: 0 continuous, 171120 integer (171120 binary)
Coefficient statistics:
  Matrix range     [1e+00, 1e+00]
  Objective range  [4e-04, 2e+00]
  Bounds range     [1e+00, 1e+00]
  RHS range        [1e+00, 1e+00]
Presolve removed 337139 rows and 154980 columns
Presolve time: 1.78s
Presolved: 103361 rows, 16140 columns, 318830 nonzeros
Variable types: 0 continuous, 16140 integer (16140 binary)
Root relaxation presolved: 16140 rows, 119501 columns, 334970 nonzeros


Root relaxation: objective 0.000000e+00, 6346 iterations, 0.52 seconds (0.90 work units)
Total elapsed time = 5.94s

    Nodes    |    Current Node    |     Objective Bounds      |     Work
 Expl Unexpl |  Obj  Depth IntInf | Incumbent    BestBd   Gap | It/Node Time

     0     0    0.00000    0  490          -    0.00000      -     -    6s
     0     0    0.00000    0  629          -    0.00000      -     -   15s
H    0     0                      38.3192727    0.00000   100%     -   15s
H    0     0                      38.3145455    0.00000   100%     -   15s
     0     0    0.00000    0  635   38.31455    0.00000   100%     -   20s
     0     0    0.00000    0  708   38.31455    0.00000   100%     -   38s
     0     0    0.00000    0  736   38.31455    0.00000   100%     -   48s
     0     0    0.00000    0  739   38.31455    0.00000   100%     -   66s
     0     0    0.00055    0  720   38.31455    0.00055   100%     -   76s
     0     0    0.00614    0  809   38.31455    0.00614   100%     -   94s
     0     0    0.01347    0  897   38.31455    0.01347   100%     -  107s
     0     0    0.02493    0  743   38.31455    0.02493   100%     -  120s
     0     0    0.03875    0  910   38.31455    0.03875   100%     -  132s
     0     0    0.05326    0 1035   38.31455    0.05326   100%     -  150s
     0     0    0.06593    0 1074   38.31455    0.06593   100%     -  165s
     0     0    0.07406    0 1075   38.31455    0.07406   100%     -  182s
     0     0    0.08280    0 1132   38.31455    0.08280   100%     -  196s
     0     0    0.08719    0 1161   38.31455    0.08719   100%     -  211s
     0     0    0.09256    0 1186   38.31455    0.09256   100%     -  225s
     0     0    0.09703    0 1147   38.31455    0.09703   100%     -  240s
     0     0    0.09999    0 1235   38.31455    0.09999   100%     -  253s
     0     0    0.10222    0 1287   38.31455    0.10222   100%     -  269s
     0     0    0.10490    0 1341   38.31455    0.10490   100%     -  284s
     0     0    0.10655    0 1289   38.31455    0.10655   100%     -  298s
     0     0    0.10869    0 1318   38.31455    0.10869   100%     -  313s
     0     0    0.11088    0 1310   38.31455    0.11088   100%     -  328s
     0     0    0.11298    0 1375   38.31455    0.11298   100%     -  341s
     0     0    0.11598    0 1370   38.31455    0.11598   100%     -  355s
H    0     0                      37.5007273    0.11598   100%     -  355s
     0     0    0.12879    0 1325   37.50073    0.12879   100%     -  377s
     0     0    0.13960    0 1206   37.50073    0.13960   100%     -  394s
     0     0    0.15325    0 1339   37.50073    0.15325   100%     -  417s
     0     0    0.16199    0 1337   37.50073    0.16199   100%     -  432s
     0     0    0.17415    0 1429   37.50073    0.17415   100%     -  458s
     0     0    0.18090    0 1382   37.50073    0.18090   100%     -  471s
     0     0    0.18712    0 1450   37.50073    0.18712   100%     -  485s
     0     0    0.19432    0 1453   37.50073    0.19432  99.5%     -  502s
     0     0    0.20175    0 1509   37.50073    0.20175  99.5%     -  518s
     0     0    0.20684    0 1550   37.50073    0.20684  99.4%     -  536s
     0     0    0.21017    0 1634   37.50073    0.21017  99.4%     -  552s
     0     0    0.21601    0 1646   37.50073    0.21601  99.4%     -  573s
     0     0    0.21889    0 1693   37.50073    0.21889  99.4%     -  583s
     0     0    0.22059    0 1758   37.50073    0.22059  99.4%     -  599s
     0     0    0.22198    0 1797   37.50073    0.22198  99.4%     -  612s
     0     0    0.22631    0 1783   37.50073    0.22631  99.4%     -  627s
     0     0    0.22940    0 1847   37.50073    0.22940  99.4%     -  639s
     0     0    0.23352    0 1910   37.50073    0.23352  99.4%     -  653s
     0     0    0.23646    0 2005   37.50073    0.23646  99.4%     -  665s
     0     0    0.24641    0 1975   37.50073    0.24641  99.3%     -  684s
     0     0    0.25513    0 2034   37.50073    0.25513  99.3%     -  698s
     0     0    0.26494    0 2006   37.50073    0.26494  99.3%     -  716s
     0     0    0.27359    0 2070   37.50073    0.27359  99.3%     -  731s
     0     0    0.28404    0 2016   37.50073    0.28404  99.2%     -  748s
     0     0    0.29550    0 2116   37.50073    0.29550  99.2%     -  766s
     0     0    0.30258    0 2143   37.50073    0.30258  99.2%     -  782s
     0     0    0.31240    0 2119   37.50073    0.31240  99.2%     -  798s
     0     0    0.32252    0 2315   37.50073    0.32252  99.1%     -  823s
     0     0    0.33937    0 2179   37.50073    0.33937  99.1%     -  850s
     0     0    0.35116    0 2234   37.50073    0.35116  99.1%     -  871s
     0     0    0.35813    0 2321   37.50073    0.35813  99.0%     -  888s
     0     0    0.36704    0 2415   37.50073    0.36704  99.0%     -  906s
     0     0    0.37553    0 2477   37.50073    0.37553  99.0%     -  924s
     0     0    0.38948    0 2455   37.50073    0.38948  99.0%     -  948s
     0     0    0.39870    0 2620   37.50073    0.39870  98.9%     -  971s
     0     0    0.41706    0 2428   37.50073    0.41706  98.9%     - 1000s
     0     0    0.42669    0 2588   37.50073    0.42669  98.9%     - 1021s
     0     0    0.43955    0 2589   37.50073    0.43955  98.8%     - 1044s
     0     0    0.44659    0 2731   37.50073    0.44659  98.8%     - 1063s
     0     0    0.46149    0 2683   37.50073    0.46149  98.8%     - 1091s
     0     0    0.46987    0 2761   37.50073    0.46987  98.7%     - 1112s
     0     0    0.48343    0 2787   37.50073    0.48343  98.7%     - 1140s
     0     0    0.49149    0 2900   37.50073    0.49149  98.7%     - 1161s
     0     0    0.50454    0 2875   37.50073    0.50454  98.7%     - 1190s
     0     0          -    0        37.50073    0.50454  98.7%     - 1200s

Cutting planes:
  Clique: 5
  MIR: 173
  Zero half: 1
  RLT: 3652
  BQP: 852

Explored 1 nodes (786393 simplex iterations) in 1200.04 seconds (5633.61 work units)
Thread count was 1 (of 12 available processors)

Solution count 3: 37.5007 38.3145 38.3193 

Time limit reached
Best objective 3.750072727273e+01, best bound 5.047272727273e-01, gap 98.6541%
